CMD:
./solvers/bin/cadical --plain --no-reduce -t 1600 ./data/cnfs//picorv32-check-p20/picorv32-check-p20.31.cnf

c --- [ banner ] -------------------------------------------------------------
c 
c CaDiCaL SAT Solver
c Copyright (c) 2016-2024
c A. Biere, M. Fleury, N. Froleyks, K. Fazekas, F. Pollitt, T. Faller
c JKU Linz, University of Freiburg, TU Wien
c 
c Version 2.1.3 5296d3d2a9bf48c154ab2acb5e44625776d821bf
c g++ (Gentoo 12.3.1_p20230526 p2) 12.3.1 20230526 -Wall -Wextra -O3 -DNDEBUG
c Sat Aug 9 07:26:21 PDT 2025 Linux cedar2.int.cedar.computecanada.ca 5.14.0-362.24.2.el9_3.x86_64 x86_64
c 
c --- [ limit ] --------------------------------------------------------------
c 
c setting time limit to 1600 seconds real time (due to '-t 1600')
c 
c --- [ parsing input ] ------------------------------------------------------
c 
c reading DIMACS file from './data/cnfs//picorv32-check-p20/picorv32-check-p20.31.cnf'
c opening file to read './data/cnfs//picorv32-check-p20/picorv32-check-p20.31.cnf'
c found 'p cnf 615181 1811986' header
c parsed 1811986 clauses in 0.38 seconds process time
c 
c --- [ options ] ------------------------------------------------------------
c 
c   --compact=false                (different from default 'true')
c   --decompose=false              (different from default 'true')
c   --deduplicate=false            (different from default 'true')
c   --elim=false                   (different from default 'true')
c   --probe=false                  (different from default 'true')
c   --reduce=false                 (different from default 'true')
c   --subsume=false                (different from default 'true')
c   --ternary=false                (different from default 'true')
c   --transred=false               (different from default 'true')
c   --vivify=false                 (different from default 'true')
c 
c --- [ solving ] ------------------------------------------------------------
c 
c time measured in process time since initialization
c 
c  seconds   reductions  redundant   irredundant
c          MB    restarts       trail        variables
c           level   conflicts       glue           remaining
c 
c *  0.38 288  0 0   0    0    0  0% 0 1774427 596128 97%
c {  0.52 296  0 0   0    0    0  0% 0 1774427 596128 97%
c i  0.62 298 56 0   0   35   26 17% 2 1774427 596125 97%
c i  0.62 298 56 0   0   36   26 17% 2 1774427 596124 97%
c i  0.62 298 55 0   0   37   26 17% 2 1774427 596123 97%
c i  0.62 298 55 0   0   38   26 17% 2 1774427 596122 97%
c i  0.62 298 55 0   0   39   26 16% 2 1774427 596121 97%
c i  0.62 298 55 0   0   40   26 16% 2 1774427 596120 97%
c i  0.62 298 55 0   0   41   26 16% 2 1774427 596119 97%
c i  0.62 298 55 0   0   42   26 16% 2 1774427 596118 97%
c i  0.62 298 55 0   0   43   26 16% 2 1774427 596117 97%
c i  0.62 298 55 0   0   44   26 15% 2 1774427 596116 97%
c i  0.62 298 54 0   0   45   26 15% 2 1774427 596115 97%
c i  0.62 298 54 0   0   46   26 15% 1 1774427 596114 97%
c i  0.62 298 54 0   0   47   26 15% 1 1774427 596113 97%
c i  0.62 298 54 0   0   48   26 15% 1 1774427 596112 97%
c i  0.62 298 54 0   0   49   26 15% 1 1774427 596111 97%
c i  0.62 298 54 0   0   50   26 15% 1 1774427 596110 97%
c i  0.62 298 54 0   0   51   26 15% 1 1774427 596109 97%
c i  0.62 298 54 0   0   52   26 15% 1 1774427 596108 97%
c 
c  seconds   reductions  redundant   irredundant
c          MB    restarts       trail        variables
c           level   conflicts       glue           remaining
c 
c i  0.62 298 54 0   0   53   26 14% 1 1774427 596107 97%
c i  0.62 298 54 0   0   54   26 14% 1 1774427 596106 97%
c i  0.62 298 54 0   0   55   26 14% 1 1774427 596105 97%
c i  0.62 298 54 0   0   56   26 14% 1 1774427 596104 97%
c i  0.62 298 53 0   0   57   26 14% 1 1774427 596103 97%
c i  0.62 298 53 0   0   58   26 14% 1 1774427 596102 97%
c i  0.62 298 53 0   0   59   26 14% 1 1774427 596101 97%
c i  0.62 298 53 0   0   60   26 14% 1 1774427 596100 97%
c i  0.62 298 53 0   0   61   26 14% 1 1774427 596099 97%
c i  0.62 298 53 0   0   62   26 14% 1 1774427 596098 97%
c i  0.62 298 53 0   0   63   26 14% 1 1774427 596097 97%
c i  0.62 298 53 0   0   64   26 14% 1 1774427 596096 97%
c i  0.62 298 53 0   0   65   26 14% 1 1774427 596095 97%
c i  0.62 298 53 0   0   66   26 14% 1 1774427 596094 97%
c i  0.62 298 53 0   0   67   26 14% 1 1774427 596093 97%
c i  0.62 298 53 0   0   68   26 14% 1 1774427 596092 97%
c i  0.62 298 53 0   0   69   26 14% 1 1774427 596091 97%
c i  0.62 298 53 0   0   70   26 14% 1 1774427 596090 97%
c i  0.62 298 53 0   0   71   26 14% 1 1774427 596089 97%
c i  0.62 298 53 0   0   72   26 13% 1 1774427 596088 97%
c 
c  seconds   reductions  redundant   irredundant
c          MB    restarts       trail        variables
c           level   conflicts       glue           remaining
c 
c i  0.62 298 53 0   0   73   26 13% 1 1774427 596087 97%
c i  0.62 298 53 0   0   74   26 13% 1 1774427 596086 97%
c i  0.62 298 53 0   0   75   26 13% 1 1774427 596085 97%
c i  0.62 298 53 0   0   76   26 13% 1 1774427 596084 97%
... skipped 11 lines ...
c i  0.80 299 42 0  40  448  339 10% 3 1774427 596071 97%
c i  0.81 299 42 0  40  468  356 10% 3 1774427 596070 97%
c i  0.84 299 40 0  41  589  463 10% 3 1774427 596069 97%
c i  0.97 299 37 0  60  963  792  9% 3 1774427 596068 97%
c i  0.98 299 37 0  63  974  799 10% 3 1774427 596051 97%
c 
c  seconds   reductions  redundant   irredundant
c          MB    restarts       trail        variables
c           level   conflicts       glue           remaining
c 
c }  1.01 299 38 0  64 1001  825 10% 3 1774427 596051 97%
c [  1.01 299  0 0  64 1001  825  0% 0 1774427 596051 97%
c O  1.13 299 8846 0  64 1002  826 85% 3 1774427 596051 97%
c i  1.18 299 8284 0  64 1081  900 78% 5 1774427 596050 97%
c i  1.18 299 8201 0  64 1115  931 77% 5 1774427 596049 97%
c i  1.18 299 8162 0  64 1144  954 76% 5 1774427 596048 97%
c i  1.19 299 8134 0  64 1174  978 76% 5 1774427 594835 97%
c i  1.21 299 8102 0  64 1209 1010 76% 5 1774427 593621 96%
c i  1.24 299 7881 0  64 1274 1067 73% 5 1774427 593620 96%
c i  1.48 299 6991 0  64 1868 1575 64% 6 1774427 593619 96%
c i  1.77 300 5606 0  65 2352 1982 53% 7 1774427 593556 96%
c i  1.81 300 5459 0  65 2410 2031 52% 7 1774427 593545 96%
c i  1.81 300 5451 0  65 2412 2031 52% 7 1774427 593527 96%
c i  1.95 300 4449 0  65 2729 2287 44% 7 1774427 593526 96%
c i  1.95 300 4444 0  65 2731 2288 44% 7 1774427 593525 96%
c i  1.98 300 4257 0  65 2809 2345 43% 7 1774427 593524 96%
c i  1.98 300 4255 0  65 2810 2345 43% 7 1774427 593523 96%
c i  2.03 300 4061 0  65 2894 2412 41% 7 1774427 593522 96%
c ]  2.06 300 3842 0  65 3002 2499 39% 7 1774427 593522 96%
c {  2.06 300 38 0  65 3002 2499 10% 3 1774427 593522 96%
c 
c  seconds   reductions  redundant   irredundant
c          MB    restarts       trail        variables
c           level   conflicts       glue           remaining
c 
c F  2.07 300 38 0  66 3003 2500 10% 3 1774427 593522 96%
c i  2.11 300 36 0  78 3083 2570  9% 3 1774427 593507 96%
c i  2.11 300 36 0  78 3084 2570  9% 3 1774427 593505 96%
c i  2.15 300 34 0  82 3203 2674  9% 3 1774427 593430 96%
c i  2.15 300 34 0  82 3207 2677  9% 3 1774427 593428 96%
c i  2.15 300 33 0  82 3217 2686  9% 3 1774427 591753 96%
c i  2.18 300 33 0  92 3286 2745  9% 3 1774427 591092 96%
c i  2.19 300 32 0  92 3302 2753  9% 3 1774427 590790 96%
c i  2.19 300 32 0  92 3304 2754  9% 3 1774427 590746 96%
c i  2.25 300 30 0  92 3478 2902  9% 3 1774427 582576 95%
c i  2.25 300 30 0  92 3484 2906  9% 3 1774427 582575 95%
c }  2.25 300 30 0  92 3490 2907  9% 3 1774427 582352 95%
c 0  2.25 300 30 0  92 3490 2907  9% 3 1774427 582352 95%
c 
c --- [ result ] -------------------------------------------------------------
c 
s UNSATISFIABLE
c 
c --- [ run-time profiling ] -------------------------------------------------
c 
c process time taken by individual solving procedures
c (percentage relative to process time for solving)
c 
c         1.87   99.99% search
c         1.06   56.57% stable
c         0.68   36.17% unstable
c         0.38   20.34% parse
c         0.14    7.24% lucky
c         0.00    0.00% simplify
c   =================================
c         1.87   83.08% solve
c 
c last line shows process time for solving
c (percentage relative to total process time)
c 
c --- [ statistics ] ---------------------------------------------------------
c 
c chronological:              1547        44.33 %  of conflicts
c conflicts:                  3490      1865.67    per second
c decisions:                 25002     13365.49    per second
c fixed:                     32631         5.30 %  of all variables
c learned:                    3320        95.13 %  per conflict
c learned_lits:              62611       100.00 %  learned literals
c minimized:                     0         0.00 %  learned literals
c shrunken:                  13560        21.66 %  learned literals
c minishrunken:               9246        14.77 %  learned literals
c otfs:                         73         2.09 %  of conflict
c propagations:           22425006        11.99 M  per second
c rephased:                      2      1745.00    interval
c restarts:                     92        37.93    interval
c stabilizing:                   1        57.34 %  of conflicts
c subsumed:                    325         0.02 %  of all clauses
c strengthened:                 73         0.00 %  of all clauses
c 
c seconds are measured in process time for solving
c 
c --- [ resources ] ----------------------------------------------------------
c 
c total process time since initialization:         2.25    seconds
c total real time since initialization:            2.27    seconds
c maximum resident set size of process:          298.31    MB
c 
c --- [ shutting down ] ------------------------------------------------------
c 
c exit 20
